14 0 12 0 11 0 12 0 11 0 12 0 11 0 12 0 
21 0 19 0 18 0 19 0 18 0 19 0 18 0 19 0  
20 0 21 0 24 0 23 0 24 0 24 0 23 0 21 0 
21 0 19 0 24 0 24 0 24 0 23 0 21 0 19 0 
19 0 17 0 24 0 24 0 23 0 21 0 19 0 17 0 
17 0 16 0 24 0 23 0 21 0 19 0 17 0 16 0 
14 1 21 1 19 1 11 1 12 5
21 0 19 0 18 0 19 0 18 0 19 0 21 0 19 0 
19 0 17 0 16 0 17 0 16 0 17 0 19 0 17 0 
17 0 16 0 15 0 16 0 15 0 16 0 17 0 16 0 
16 0 14 0 13 0 14 0 13 0 14 0 16 0 14 0 
0 1 16 1 19 1 12 1 16 1 19 1 24 1 19 1 17 1 16 1 14 1 12 1
21 1 20 1 21 1 24 1 23 1 21 1 
9 1 6 1 7 1 7 1 12 1 16 1 16 1 5 1 5 1 5 1 11 1 14 1 14 1 4 1 4 1 4 1 9 1 12 1
24 1 14 1 21 1 21 1 19 1 11 1 12 1 
